c instance by G2
c solution = 100101110000110
c Known solution cost is 71
p cnf 15 30
w 7 2 0 2 3 7 6 7 6 4 7 1 2 8 9
-9 -6 10 0
7 -9 -10 0
8 -11 -4 0
-2 -7 -6 0
-14 8 -6 0
-7 -13 4 0
-15 8 -13 0
-8 15 4 0
-14 3 -12 0
15 2 1 0
-1 5 -10 0
5 3 -2 0
6 14 2 0
1 -10 -6 0
-11 5 -9 0
10 12 -2 0
-15 5 -11 0
12 -4 -11 0
7 5 13 0
-1 7 8 0
13 -14 -7 0
-1 -9 -6 0
10 14 15 0
6 8 12 0
-6 3 7 0
9 7 -3 0
-10 6 -11 0
-2 -5 -4 0
-4 13 -1 0
-15 12 3 0
